qbf_easy_train/easy_3846_SAT.qdimacs
p cnf 24 57
a 16 12 20 0
e 1 2 3 4 5 6 7 8 9 10 11 13 14 15 17 18 19 21 22 23 24 0
-3 -1 0
-3 2 0
1 -2 3 0
1 -5 -6 0
-1 5 -6 0
1 5 6 0
-1 -5 6 0
-7 8 -9 0
7 -8 -9 0
-7 -8 9 0
7 8 9 0
-10 6 0
-10 -9 0
-6 9 10 0
12 -10 0
12 -11 0
10 11 -12 0
13 4 0
13 -12 0
-4 12 -13 0
-14 -3 0
-14 13 0
3 -13 14 0
-16 -15 0
-16 9 0
15 -9 16 0
17 16 0
17 -8 0
-16 8 -17 0
-18 14 0
-18 17 0
-14 -17 18 0
6 15 -19 0
-6 -15 -19 0
6 -15 19 0
-6 15 19 0
20 18 0
20 -19 0
-18 19 -20 0
21 5 0
21 9 0
-5 -9 -21 0
22 -9 0
22 -9 0
9 -22 0
23 21 0
23 22 0
-21 -22 -23 0
24 -20 0
24 -23 0
20 23 -24 0
1 5 17 -24 -21 3 -12 0
-2 11 9 18 -5 0
20 10 -13 -24 8 12 -21 6 0
-15 -18 5 0
-13 23 2 14 20 0
24 0
