sat_easy_train/easy_3846_SAT.dimacs
p cnf 105 346
-2 3 -4 0
2 -3 -4 0
-2 -3 4 0
2 3 4 0
5 -1 0
5 -4 0
1 4 -5 0
7 -6 0
7 -6 0
6 -7 0
7 -8 -9 0
-7 8 -9 0
7 8 9 0
-7 -8 9 0
-9 -10 -11 0
9 10 -11 0
-9 10 11 0
9 -10 11 0
11 -12 -13 0
-11 12 -13 0
11 12 13 0
-11 -12 13 0
-5 13 -14 0
5 -13 -14 0
-5 -13 14 0
5 13 14 0
15 -16 -17 0
-15 16 -17 0
15 16 17 0
-15 -16 17 0
20 18 0
20 19 0
-18 -19 -20 0
21 17 0
21 20 0
-17 -20 -21 0
15 -23 -24 0
-15 23 -24 0
15 23 24 0
-15 -23 24 0
-22 24 -25 0
22 -24 -25 0
-22 -24 25 0
22 24 25 0
26 -22 0
26 18 0
22 -18 -26 0
-27 26 0
-27 15 0
-26 -15 27 0
28 15 0
28 -27 0
-15 27 -28 0
-29 1 0
-29 -28 0
-1 28 29 0
-31 30 0
-31 19 0
-30 -19 31 0
32 29 0
32 -31 0
-29 31 -32 0
25 32 -33 0
-25 -32 -33 0
25 -32 33 0
-25 32 33 0
-34 8 0
-34 6 0
-8 -6 34 0
35 -2 0
35 -15 0
2 15 -35 0
34 35 -36 0
-34 -35 -36 0
34 -35 36 0
-34 35 36 0
-37 -33 0
-37 -36 0
33 36 37 0
-38 21 0
-38 -37 0
-21 37 38 0
-14 38 -39 0
14 -38 -39 0
-14 -38 39 0
14 38 39 0
-40 15 0
-40 26 0
-15 -26 40 0
-39 -40 -41 0
39 40 -41 0
-39 40 41 0
39 -40 41 0
-23 3 -42 0
23 -3 -42 0
-23 -3 42 0
23 3 42 0
43 18 0
43 -8 0
-18 8 -43 0
44 43 0
44 -15 0
-43 15 -44 0
-45 -1 0
-45 -44 0
1 44 45 0
7 -34 -46 0
-7 34 -46 0
7 34 46 0
-7 -34 46 0
-45 -46 -47 0
45 46 -47 0
-45 46 47 0
45 -46 47 0
-48 19 0
-48 -43 0
-19 43 48 0
49 -47 0
49 -48 0
47 48 -49 0
1 -19 -50 0
-1 19 -50 0
1 19 50 0
-1 -19 50 0
-51 49 0
-51 50 0
-49 -50 51 0
-34 43 -52 0
34 -43 -52 0
-34 -43 52 0
34 43 52 0
-8 52 -53 0
8 -52 -53 0
-8 -52 53 0
8 52 53 0
-54 19 0
-54 -53 0
-19 53 54 0
-51 -54 -55 0
51 54 -55 0
-51 54 55 0
51 -54 55 0
57 -47 0
57 56 0
47 -56 -57 0
58 24 0
58 -57 0
-24 57 -58 0
-58 -8 -59 0
58 8 -59 0
-58 8 59 0
58 -8 59 0
60 55 0
60 59 0
-55 -59 -60 0
-61 -42 0
-61 -60 0
42 60 61 0
3 52 -62 0
-3 -52 -62 0
3 -52 62 0
-3 52 62 0
-22 -19 -63 0
22 19 -63 0
-22 19 63 0
22 -19 63 0
-64 17 0
-64 -63 0
-17 63 64 0
-65 34 0
-65 -64 0
-34 64 65 0
-66 -62 0
-66 -65 0
62 65 66 0
-61 66 -67 0
61 -66 -67 0
-61 -66 67 0
61 66 67 0
-68 -3 0
-68 15 0
3 -15 68 0
67 -68 -69 0
-67 68 -69 0
67 68 69 0
-67 -68 69 0
-41 -69 -70 0
41 69 -70 0
-41 69 70 0
41 -69 70 0
-71 -22 0
-71 -63 0
22 63 71 0
72 10 0
72 2 0
-10 -2 -72 0
73 64 0
73 -72 0
-64 72 -73 0
74 71 0
74 73 0
-71 -73 -74 0
74 26 -75 0
-74 -26 -75 0
74 -26 75 0
-74 26 75 0
-56 -76 0
56 -76 0
77 -76 0
77 57 0
76 -57 -77 0
-78 -24 0
-78 77 0
24 -77 78 0
-79 -75 0
-79 -78 0
75 78 79 0
-80 20 0
-80 28 0
-20 -28 80 0
81 -53 0
81 -80 0
53 80 -81 0
-82 -46 0
-82 -63 0
46 63 82 0
-82 -83 -84 0
82 83 -84 0
-82 83 84 0
82 -83 84 0
-81 -84 -85 0
81 84 -85 0
-81 84 85 0
81 -84 85 0
-86 26 0
-86 -72 0
-26 72 86 0
-87 -85 0
-87 86 0
85 -86 87 0
74 -18 -88 0
-74 18 -88 0
74 18 88 0
-74 -18 88 0
89 -87 0
89 -88 0
87 88 -89 0
90 -34 0
90 -11 0
34 11 -90 0
-91 80 0
-91 90 0
-80 -90 91 0
-92 76 0
-92 -19 0
-76 19 92 0
93 -91 0
93 92 0
91 -92 -93 0
-56 46 -94 0
56 -46 -94 0
-56 -46 94 0
56 46 94 0
95 -7 0
95 -27 0
7 27 -95 0
-96 63 0
-96 -95 0
-63 95 96 0
-94 96 -97 0
94 -96 -97 0
-94 -96 97 0
94 96 97 0
-98 23 0
-98 -15 0
-23 15 98 0
-3 17 -99 0
3 -17 -99 0
-3 -17 99 0
3 17 99 0
100 -98 0
100 -99 0
98 99 -100 0
101 97 0
101 -100 0
-97 100 -101 0
-93 -101 -102 0
93 101 -102 0
-93 101 102 0
93 -101 102 0
-103 89 0
-103 -102 0
-89 102 103 0
79 -103 -104 0
-79 103 -104 0
79 103 104 0
-79 -103 104 0
-105 70 0
-105 104 0
-70 -104 105 0
-91 43 -65 3 0
-66 62 104 0
-105 -21 79 54 96 29 0
-22 -81 -80 52 -11 -45 0
-57 -95 -36 0
-73 26 0
-4 -79 -91 12 0
-86 -11 9 0
-36 77 -55 54 0
32 -21 -50 6 11 -33 0
100 -33 0
45 10 74 96 0
73 100 -105 37 33 0
-101 62 -33 -65 52 -50 0
104 -18 103 -39 -69 0
42 -15 -41 0
-15 -28 -35 -60 0
-82 66 0
75 -96 0
-103 25 -36 74 0
11 -64 1 19 0
-88 70 43 -75 -87 0
26 -72 61 -97 44 0
46 38 0
75 5 -41 -55 31 0
101 -66 0
-82 83 -66 -68 0
8 -89 57 99 -91 0
-17 -87 40 -15 59 -92 0
-59 25 26 94 43 0
79 68 -93 103 99 0
43 51 -33 -84 0
-21 71 74 -94 -69 0
-79 -103 0
-31 47 104 -48 0
29 66 -61 0
-56 -67 88 6 0
66 -79 -92 -26 77 0
24 -38 105 -36 -67 16 0
-81 88 -94 34 0
-5 -23 66 0
24 73 -97 0
-7 -31 -58 -76 -99 0
96 10 76 -33 31 -77 0
66 -90 0
105 0
